NAME: tsp20_9
COMMENT: 20-tsp problem (Padberg/Rinaldi)
TYPE: TSP
DIMENSION: 20
EDGE_WEIGHT_TYPE : EUC_2D
NODE_COORD_SECTION
1.00 2.45 26.99
2.00 32.67 26.02
3.00 34.38 33.95
4.00 10.01 29.41
5.00 34.58 15.64
6.00 36.96 0.56
7.00 17.94 21.10
8.00 14.32 28.57
9.00 27.69 38.36
10.00 36.37 14.23
11.00 11.96 20.45
12.00 23.53 15.45
13.00 9.74 6.93
14.00 31.76 14.08
15.00 1.72 30.42
16.00 33.14 33.21
17.00 39.81 31.09
18.00 6.33 25.00
19.00 14.19 26.66
20.00 33.74 30.65
